ALGO = All
PREC = Accurate
ISPIN = 2
ENCUT = 450
ISMEAR = 0
SIGMA = 0.05
LORBIT = 12
#LREAL = Auto
NELM = 100
NELMIN = 5
EDIFF = 1e-5
EDIFFG = -0.02
ISIF = 2 
NSW = 60
IBRION = 2
ICHARG = 1
LCHARG = .TRUE.
LWAVE = .TRUE.

KPAR = 1
NPAR = 2 
