SystemName      graphene         
SystemLabel     graphene

LatticeConstant 2.46 Ang
%block LatticeVectors 
  1.0000000000000000  0.0000000000000000  0.0000000000000000
 -0.5000000000000000  0.8660254037844386  0.0000000000000000
  0.0000000000000000  0.0000000000000000  4.8780487804878049
%endblock LatticeVectors
 
NumberOfSpecies   1
NumberOfAtoms     2
%block ChemicalSpeciesLabel
  1  6   C
%endblock ChemicalSpeciesLabel

AtomicCoordinatesFormat Fractional
%block AtomicCoordinatesAndAtomicSpecies
    0.00000   0.00000   0.16667     1        1    C
    0.66667   0.33333   0.16667     1        2    C
%endblock AtomicCoordinatesAndAtomicSpecies


XC.functional   GGA                #exchange-correlation functional
XC.authors      PBE

SolutionMethod   diagon            #default diagonalization solution of the KS Hamiltonian

#---Options for k-Points Sampling----------------------------------------------

WriteKpoints                 F     #default false, not writing the coordinates of k vectors for ksampling
%block kgrid_Monkhorst_Pack
    8    0   0   0.5                # K-sampling kpoints 8x8x1
    0    8   0   0.5
    0    0   1   0.0
%endblock kgrid_Monkhorst_Pack

#---Options for Basis Set------------------------------------------------------

PAO.BasisType   split    # Default split, split-valence scheme for multiple-zeta, based on different radii
PAO.BasisSize   DZP      # Default DZP double zeta with polarization orbitals basis set
PAO.SplitNorm   0.15     # Default 0.15
PAO.EnergyShift 0.02 Ry  # Default 0.02 Ry  a standard for orbital-confining cutoff radii


#---Options for Initialisation and SCF Loop------------------------------------

ElectronicTemperature        300 K
OccupationFunction           FD          # function determining the occupation of the electronic states
MeshCutOff                   200 Ry      # default 100 Ry, plane wave energy cutoff
  

DM.UseSaveDM	              .True.               # whether or not to read previous density matrix 
DM.MixingWeight               0.02                 # Default 0.25
DM.NumberPulay                5                    # Default 0
DM.Tolerance                  1.d-5                # Default convergence criteria for DM
DM.RequireEnergyConvergence   .True.
DM.EnergyTolerance            1.d-4 eV             # Energy convergency criteria
MaxSCFIterations              500                  # Maximum number of SCF iterations

#---Options for Structural Relaxations-----------------------------------------

MD.TypeOfRun	             CG                  # structure optimization option
MD.NumCGSteps	             500
MD.VariableCell	             .False.             #default, no lattice relaxation
MD.ConstantVolume            .False.             # default, no change in lattice volume
MD.MaxForceTol	             0.02 eV/Ang         # Default 0.04 eV/Ang, force tolerance
MD.MaxCGDispl	             0.03 Bohr           # Default 0.20 Bohr
MD.UseSaveCG	             T
MD.UseSaveXV	             T
#SaveRho                     T
DM.UseSaveDM	             T

WriteBands         F                      # writing band information
BandLinesScale	ReciprocalLatticeVectors
%block BandLines
 1    0.000000   0.000000  0.000000   \Gamma
 30   0.333333   0.333333  0.000000   K
 30   0.500000   0.000000  0.000000    M
 45   0.000000   0.000000  0.000000   \Gamma
%endblock BandLines


